Problem:    
Rows:       113
Columns:    45 (34 integer, 34 binary)
Non-zeros:  356
Status:     INTEGER OPTIMAL
Objective:  value = 13.806508 (MINimum)

   No.   Row name        Activity     Lower bound   Upper bound
------ ------------    ------------- ------------- -------------
     1 r.5                   1013.81             0               
     2 r.6                  -986.193      -989.348               
     3 r.7                   13.8065             0               
     4 r.8                   13.8065      -995.112               
     5 r.9                   13.8065             0               
     6 r.10                  13.8065       -995.74               
     7 r.11                  1013.81             0               
     8 r.12                 -986.193      -997.569               
     9 r.13                  13.8065             0               
    10 r.14                  13.8065      -976.693               
    11 r.15                  1013.81             0               
    12 r.16                 -989.842      -992.436               
    13 r.17                  13.8065             0               
    14 r.18                  13.8065      -996.354               
    15 r.19                  1013.81             0               
    16 r.20                 -988.625      -998.783               
    17 r.21                  13.8065             0               
    18 r.22                   3.9798      -999.934               
    19 r.23                  1013.81             0               
    20 r.24                  -998.76       -998.76               
    21 r.25                        1             1             = 
    22 r.26                        1             1             = 
    23 r.27                        1             1             = 
    24 r.28                        1             1             = 
    25 r.29                        1             1             = 
    26 r.30                     1001             2               
    27 r.31                    -1001         -1001               
    28 r.32                     2000       -995.74               
    29 r.33                     1001             2               
    30 r.34                    -1001         -1001               
    31 r.35                     2000      -997.569               
    32 r.36                     1001             2               
    33 r.37                    -1001         -1001               
    34 r.38                     2000      -976.693               
    35 r.39                     1001             2               
    36 r.40                    -1001         -1001               
    37 r.41                  1996.35      -992.436               
    38 r.42                     1001             2               
    39 r.43                    -1001         -1001               
    40 r.44                     2000      -996.354               
    41 r.45                     1001             2               
    42 r.46                    -1001         -1001               
    43 r.47                  1997.57      -998.783               
    44 r.48                 -988.788      -989.348               
    45 r.49                   11.212      -995.112               
    46 r.50                 -988.788      -989.348               
    47 r.51                   11.212      -995.112               
    48 r.52                     1001             2               
    49 r.53                    -1001         -1001               
    50 r.54                     2000       10.6524               
    51 r.55                     1001             2               
    52 r.56                    -1001         -1001               
    53 r.57                     2000        4.8876               
    54 r.58                     1000             2               
    55 r.59                    -1000         -1001               
    56 r.60                     2000      -976.693               
    57 r.61                        2             2               
    58 r.62                       -2         -1001               
    59 r.63                  -3.6484      -992.436               
    60 r.64                     1000             2               
    61 r.65                    -1000         -1001               
    62 r.66                     2000      -996.354               
    63 r.67                        2             2               
    64 r.68                       -2         -1001               
    65 r.69                  -2.4312      -998.783               
    66 r.70                   11.212       -995.74               
    67 r.71                 -988.788      -997.569               
    68 r.72                   11.212       -995.74               
    69 r.73                 -988.788      -997.569               
    70 r.74                     1001             2               
    71 r.75                    -1001         -1001               
    72 r.76                     2000       10.6524               
    73 r.77                     1001             2               
    74 r.78                    -1001         -1001               
    75 r.79                  2003.65        4.8876               
    76 r.80                     1000             2               
    77 r.81                    -1000         -1001               
    78 r.82                     2000        4.2601               
    79 r.83                        2             2               
    80 r.84                       -2         -1001               
    81 r.85                   3.6484        2.4312               
    82 r.86                     1000             2               
    83 r.87                    -1000         -1001               
    84 r.88                     2000      -996.354               
    85 r.89                        2             2               
    86 r.90                       -2         -1001               
    87 r.91                 -998.783      -998.783               
    88 r.92                   11.212      -976.693               
    89 r.93                 -992.436      -992.436               
    90 r.94                   11.212      -976.693               
    91 r.95                 -992.436      -992.436               
    92 r.96                     1001             2               
    93 r.97                    -1001         -1001               
    94 r.98                     2000       10.6524               
    95 r.99                     1001             2               
    96 r.100                   -1001         -1001               
    97 r.101                 2002.43        4.8876               
    98 r.102                    1000             2               
    99 r.103                   -1000         -1001               
   100 r.104                    2000        4.2601               
   101 r.105                       2             2               
   102 r.106                      -2         -1001               
   103 r.107                  2.4312        2.4312               
   104 r.108                    1000             2               
   105 r.109                   -1000         -1001               
   106 r.110                    2000       23.3065               
   107 r.111                       2             2               
   108 r.112                      -2         -1001               
   109 r.113                 998.783        7.5636               
   110 r.114                  11.212      -996.354               
   111 r.115                -991.219      -998.783               
   112 r.116                  11.212      -996.354               
   113 r.117                -991.219      -998.783               

   No. Column name       Activity     Lower bound   Upper bound
------ ------------    ------------- ------------- -------------
     1 tt                    13.8065             0               
     2 s_1_1        *              1             0             1 
     3 t_1_1                       0             0               
     4 s_2_1        *              0             0             1 
     5 t_2_1                       0             0               
     6 s_1_2        *              0             0             1 
     7 t_1_2                       0             0               
     8 s_2_2        *              1             0             1 
     9 t_2_2                       0             0               
    10 s_1_3        *              0             0             1 
    11 t_1_3                       0             0               
    12 s_2_3        *              1             0             1 
    13 t_2_3                  3.6484             0               
    14 s_1_4        *              0             0             1 
    15 t_1_4                       0             0               
    16 s_2_4        *              1             0             1 
    17 t_2_4                  2.4312             0               
    18 s_1_5        *              0             0             1 
    19 t_1_5                  11.212             0               
    20 s_2_5        *              1             0             1 
    21 t_2_5                  11.212             0               
    22 r_1_1_2      *              1             0             1 
    23 u_1_1_2      *              0             0             1 
    24 r_2_1_2      *              1             0             1 
    25 u_2_1_2      *              0             0             1 
    26 r_1_1_3      *              1             0             1 
    27 u_1_1_3      *              0             0             1 
    28 r_2_1_3      *              1             0             1 
    29 u_2_1_3      *              0             0             1 
    30 r_1_1_4      *              1             0             1 
    31 u_1_1_4      *              0             0             1 
    32 r_2_1_4      *              1             0             1 
    33 u_2_1_4      *              0             0             1 
    34 r_1_2_3      *              1             0             1 
    35 u_1_2_3      *              0             0             1 
    36 r_2_2_3      *              0             0             1 
    37 u_2_2_3      *              0             0             1 
    38 r_1_2_4      *              1             0             1 
    39 u_1_2_4      *              0             0             1 
    40 r_2_2_4      *              0             0             1 
    41 u_2_2_4      *              0             0             1 
    42 r_1_3_4      *              1             0             1 
    43 u_1_3_4      *              0             0             1 
    44 r_2_3_4      *              0             0             1 
    45 u_2_3_4      *              1             0             1 

Integer feasibility conditions:

KKT.PE: max.abs.err = 0.00e+00 on row 0
        max.rel.err = 0.00e+00 on row 0
        High quality

KKT.PB: max.abs.err = 1.02e-14 on row 103
        max.rel.err = 2.98e-15 on row 103
        High quality

End of output
